%SETS
JOBS = 1..10;
MACHINES = 1..5;
SPEED    = 5;

time = array3d(JOBS,MACHINES,1..SPEED,[26, 9, 6, 5, 4, 14, 5, 3, 3, 2, 57, 19, 14, 11, 10, 85, 29, 21, 17, 15, 12, 4, 3, 2, 2, 40, 14, 9, 8, 7, 19, 6, 4, 3, 3, 21, 7, 5, 4, 3, 67, 23, 16, 13, 12, 1, 1, 1, 1, 1, 2, 1, 1, 1, 1, 1, 1, 1, 1, 1, 46, 15, 11, 9, 8, 38, 13, 9, 7, 7, 52, 18, 12, 10, 9, 99, 34, 24, 20, 17, 41, 14, 10, 8, 7, 16, 5, 3, 3, 2, 39, 13, 9, 7, 7, 3, 1, 1, 1, 1, 26, 9, 6, 5, 4, 4, 1, 1, 1, 1, 74, 25, 18, 15, 13, 19, 6, 4, 3, 3, 13, 4, 3, 2, 2, 7, 2, 1, 1, 1, 38, 13, 9, 7, 6, 15, 5, 3, 3, 2, 21, 7, 5, 4, 3, 1, 1, 1, 1, 1, 24, 8, 6, 5, 4, 24, 8, 6, 4, 4, 24, 8, 6, 5, 4, 74, 25, 18, 15, 13, 29, 10, 7, 6, 5, 11, 3, 2, 2, 2, 14, 5, 3, 3, 2, 30, 10, 7, 6, 5, 1, 1, 1, 1, 1, 28, 9, 6, 5, 5, 28, 9, 7, 5, 5, 6, 2, 1, 1, 1, 3, 1, 1, 1, 1, 9, 3, 2, 1, 1, 11, 4, 2, 2, 2, 21, 7, 5, 4, 3, 14, 5, 3, 3, 2, 115, 39, 28, 23, 20, 2, 1, 1, 1, 1, 6, 2, 1, 1, 1]);
energy = array3d(JOBS,MACHINES,1..SPEED,[77, 91, 94, 95, 96, 86, 95, 97, 97, 98, 56, 82, 86, 89, 90, 42, 74, 81, 84, 86, 88, 96, 97, 98, 98, 67, 86, 91, 92, 93, 82, 94, 96, 97, 97, 81, 93, 95, 96, 97, 51, 79, 85, 87, 88, 99, 99, 99, 99, 99, 98, 99, 99, 99, 99, 99, 99, 99, 99, 99, 63, 86, 89, 91, 92, 68, 87, 91, 93, 93, 59, 83, 88, 90, 91, 37, 71, 78, 81, 84, 66, 86, 90, 92, 93, 85, 95, 97, 97, 98, 67, 87, 91, 93, 93, 97, 99, 99, 99, 99, 77, 91, 94, 95, 96, 96, 99, 99, 99, 99, 47, 77, 83, 86, 87, 82, 94, 96, 97, 97, 87, 96, 97, 98, 98, 93, 98, 99, 99, 99, 68, 87, 91, 93, 94, 86, 95, 97, 97, 98, 81, 93, 95, 96, 97, 99, 99, 99, 99, 99, 78, 92, 94, 95, 96, 78, 92, 94, 96, 96, 78, 92, 94, 95, 96, 47, 77, 83, 86, 87, 74, 90, 93, 94, 95, 89, 97, 98, 98, 98, 86, 95, 97, 97, 98, 74, 90, 93, 94, 95, 99, 99, 99, 99, 99, 75, 91, 94, 95, 95, 75, 91, 93, 95, 95, 94, 98, 99, 99, 99, 97, 99, 99, 99, 99, 91, 97, 98, 99, 99, 89, 96, 98, 98, 98, 81, 93, 95, 96, 97, 86, 95, 97, 97, 98, 31, 67, 75, 79, 81, 98, 99, 99, 99, 99, 94, 98, 99, 99, 99]);
precedence = array2d(JOBS,MACHINES,[4, 3, 1, 2, 0, 4, 3, 2, 0, 1, 0, 1, 4, 3, 2, 0, 4, 3, 2, 1, 4, 0, 2, 1, 3, 4, 3, 2, 1, 0, 2, 0, 4, 1, 3, 2, 4, 1, 0, 3, 2, 3, 1, 4, 0, 4, 2, 0, 3, 1]);